NAME: n60q40J.tsp, 60 nodes, semilla 999
COMMENT: Problema aleatorio de norma euclidea
DIMENSION: 60
CAPACITY: 40
EDGE_WEIGHT_TYPE: EUC_2D
NODE_COORD_SECTION
1   0.0000   0.0000
2 -258.0000 -199.0000
3 244.0000 486.0000
4 -59.0000 464.0000
5 -209.0000 245.0000
6 -191.0000 -274.0000
7  68.0000 436.0000
8 490.0000 -252.0000
9 -97.0000  72.0000
10 -32.0000 165.0000
11 -330.0000 146.0000
12 353.0000 302.0000
13 -362.0000 224.0000
14 -270.0000 -430.0000
15 414.0000 421.0000
16 -237.0000 -276.0000
17 106.0000   3.0000
18 360.0000 -189.0000
19 371.0000 269.0000
20 390.0000 421.0000
21 173.0000 -359.0000
22 -149.0000 -267.0000
23 -15.0000 478.0000
24 352.0000  15.0000
25 -444.0000 -29.0000
26 -341.0000 -49.0000
27 440.0000 136.0000
28 480.0000 -228.0000
29 -447.0000 -367.0000
30 -127.0000 -406.0000
31  51.0000 -296.0000
32 -178.0000 120.0000
33 -294.0000 -294.0000
34 -394.0000 -465.0000
35 -247.0000 261.0000
36 254.0000 117.0000
37 -353.0000 -497.0000
38 353.0000  89.0000
39 -169.0000 -69.0000
40 257.0000 -377.0000
41 -272.0000 464.0000
42 116.0000 126.0000
43 220.0000 -141.0000
44 483.0000 425.0000
45 284.0000 -90.0000
46 -352.0000 275.0000
47 -108.0000 -175.0000
48 118.0000 134.0000
49 459.0000 -408.0000
50 -467.0000 453.0000
51 -274.0000 -355.0000
52 173.0000 200.0000
53 198.0000 103.0000
54 395.0000 -272.0000
55 479.0000 -22.0000
56 -422.0000 308.0000
57 185.0000 385.0000
58 100.0000 -188.0000
59 380.0000 -78.0000
60 130.0000 -420.0000
DISPLAY_DATA_SECTION:
 1  250  250
 2  121  150
 3  372  493
 4  220  482
 5  145  372
 6  154  113
 7  284  468
 8  495  124
 9  201  286
10  234  332
11   85  323
12  426  401
13   69  362
14  115   35
15  457  460
16  131  112
17  303  251
18  430  155
19  435  384
20  445  460
21  336   70
22  175  116
23  242  489
24  426  257
25   28  235
26   79  225
27  470  318
28  490  136
29   26   66
30  186   47
31  275  102
32  161  310
33  103  103
34   53   17
35  126  380
36  377  308
37   73    1
38  426  294
39  165  215
40  378   61
41  114  482
42  308  313
43  360  179
44  491  462
45  392  205
46   74  387
47  196  162
48  309  317
49  479   46
50   16  476
51  113   72
52  336  350
53  349  301
54  447  114
55  489  239
56   39  404
57  342  442
58  300  156
59  440  211
60  315   40
DEMAND_SECTION
1 -4
2 -7
3 -2
4 -6
5 -6
6 2
7 0
8 9
9 10
10 -8
11 7
12 4
13 5
14 -4
15 7
16 8
17 0
18 0
19 -3
20 -8
21 -5
22 -10
23 -7
24 0
25 9
26 -3
27 -1
28 0
29 -8
30 9
31 -4
32 -1
33 4
34 9
35 2
36 1
37 1
38 0
39 -7
40 5
41 -6
42 10
43 6
44 -1
45 6
46 0
47 -5
48 -1
49 -2
50 2
51 -6
52 9
53 -1
54 -5
55 -6
56 -8
57 8
58 -5
59 2
60 5
EOF